NAME 
OBJSENSE MAX
ROWS
 N  OBJ
 L  packing[0]
 L  packing[1]
 L  packing[2]
 L  packing[3]
 L  packing[4]
 L  packing[5]
 L  packing[6]
 L  packing[7]
 L  packing[8]
 L  packing[9]
 L  packing[10]
 L  packing[11]
 L  packing[12]
 L  packing[13]
 L  packing[14]
 L  packing[15]
 L  packing[16]
 L  packing[17]
 L  packing[18]
 L  packing[19]
 L  packing[20]
 L  packing[21]
 L  packing[22]
 L  packing[23]
 L  packing[24]
 L  packing[25]
 L  packing[26]
 L  packing[27]
 L  packing[28]
 L  packing[29]
 L  packing[30]
 L  packing[31]
 L  packing[32]
 L  packing[33]
 L  packing[34]
 L  packing[35]
 L  packing[36]
 L  packing[37]
 L  packing[38]
 L  packing[39]
 L  packing[40]
 L  packing[41]
 L  packing[42]
 L  packing[43]
 L  packing[44]
 L  packing[45]
 L  packing[46]
 L  packing[47]
 L  packing[48]
 L  packing[49]
 L  R52     
COLUMNS
    MARKER    'MARKER'                 'INTORG'
    x[1]      OBJ       148
    x[1]      packing[3]  76
    x[1]      packing[4]  68
    x[1]      packing[6]  15
    x[1]      packing[7]  80
    x[1]      packing[8]  193
    x[1]      packing[9]  14
    x[1]      packing[10]  194
    x[1]      packing[11]  133
    x[1]      packing[13]  73
    x[1]      packing[18]  58
    x[1]      packing[19]  53
    x[1]      packing[21]  78
    x[1]      packing[22]  128
    x[1]      packing[23]  75
    x[1]      packing[25]  67
    x[1]      packing[26]  2
    x[1]      packing[27]  58
    x[1]      packing[29]  77
    x[1]      packing[30]  30
    x[1]      packing[31]  78
    x[1]      packing[32]  48
    x[1]      packing[33]  64
    x[1]      packing[37]  177
    x[1]      packing[38]  164
    x[1]      packing[40]  74
    x[1]      packing[42]  53
    x[1]      packing[44]  81
    x[1]      packing[45]  154
    x[1]      packing[46]  43
    x[1]      packing[48]  116
    x[2]      OBJ       4
    x[2]      packing[0]  95
    x[2]      packing[2]  20
    x[2]      packing[4]  31
    x[2]      packing[5]  75
    x[2]      packing[8]  152
    x[2]      packing[9]  12
    x[2]      packing[10]  18
    x[2]      packing[11]  97
    x[2]      packing[12]  130
    x[2]      packing[13]  44
    x[2]      packing[16]  152
    x[2]      packing[17]  16
    x[2]      packing[19]  39
    x[2]      packing[20]  160
    x[2]      packing[21]  40
    x[2]      packing[22]  60
    x[2]      packing[23]  199
    x[2]      packing[24]  14
    x[2]      packing[25]  51
    x[2]      packing[26]  198
    x[2]      packing[27]  38
    x[2]      packing[28]  60
    x[2]      packing[29]  2
    x[2]      packing[30]  125
    x[2]      packing[31]  10
    x[2]      packing[32]  19
    x[2]      packing[33]  112
    x[2]      packing[34]  42
    x[2]      packing[36]  57
    x[2]      packing[37]  106
    x[2]      packing[38]  187
    x[2]      packing[39]  40
    x[2]      packing[40]  145
    x[2]      packing[41]  64
    x[2]      packing[42]  133
    x[2]      packing[43]  57
    x[2]      packing[44]  169
    x[2]      packing[45]  177
    x[2]      packing[46]  44
    x[2]      packing[47]  126
    x[2]      packing[48]  157
    x[2]      packing[49]  29
    x[3]      OBJ       126
    x[3]      packing[1]  23
    x[3]      packing[2]  51
    x[3]      packing[3]  39
    x[3]      packing[4]  137
    x[3]      packing[5]  2
    x[3]      packing[6]  143
    x[3]      packing[7]  165
    x[3]      packing[9]  75
    x[3]      packing[10]  122
    x[3]      packing[11]  78
    x[3]      packing[12]  102
    x[3]      packing[13]  148
    x[3]      packing[14]  132
    x[3]      packing[15]  131
    x[3]      packing[18]  21
    x[3]      packing[19]  187
    x[3]      packing[20]  119
    x[3]      packing[21]  157
    x[3]      packing[22]  170
    x[3]      packing[23]  69
    x[3]      packing[24]  188
    x[3]      packing[25]  21
    x[3]      packing[27]  189
    x[3]      packing[29]  139
    x[3]      packing[30]  197
    x[3]      packing[32]  95
    x[3]      packing[33]  148
    x[3]      packing[35]  10
    x[3]      packing[36]  109
    x[3]      packing[37]  160
    x[3]      packing[39]  123
    x[3]      packing[40]  194
    x[3]      packing[42]  132
    x[3]      packing[45]  131
    x[3]      packing[46]  25
    x[3]      packing[47]  117
    x[3]      packing[48]  131
    x[3]      packing[49]  138
    x[4]      OBJ       187
    x[4]      packing[0]  192
    x[4]      packing[2]  80
    x[4]      packing[4]  21
    x[4]      packing[5]  59
    x[4]      packing[6]  118
    x[4]      packing[8]  195
    x[4]      packing[9]  117
    x[4]      packing[11]  193
    x[4]      packing[12]  15
    x[4]      packing[14]  58
    x[4]      packing[15]  109
    x[4]      packing[16]  53
    x[4]      packing[17]  144
    x[4]      packing[18]  12
    x[4]      packing[21]  38
    x[4]      packing[22]  98
    x[4]      packing[23]  126
    x[4]      packing[24]  137
    x[4]      packing[25]  32
    x[4]      packing[27]  106
    x[4]      packing[30]  68
    x[4]      packing[31]  5
    x[4]      packing[32]  45
    x[4]      packing[33]  69
    x[4]      packing[34]  167
    x[4]      packing[35]  157
    x[4]      packing[36]  3
    x[4]      packing[37]  35
    x[4]      packing[38]  3
    x[4]      packing[39]  171
    x[4]      packing[40]  44
    x[4]      packing[41]  135
    x[4]      packing[42]  165
    x[4]      packing[43]  65
    x[4]      packing[44]  165
    x[4]      packing[45]  20
    x[4]      packing[47]  12
    x[4]      packing[48]  168
    x[4]      packing[49]  199
    x[5]      OBJ       127
    x[5]      packing[0]  55
    x[5]      packing[1]  136
    x[5]      packing[3]  155
    x[5]      packing[5]  1
    x[5]      packing[6]  80
    x[5]      packing[7]  144
    x[5]      packing[8]  71
    x[5]      packing[9]  172
    x[5]      packing[10]  19
    x[5]      packing[11]  168
    x[5]      packing[12]  32
    x[5]      packing[13]  157
    x[5]      packing[14]  193
    x[5]      packing[15]  132
    x[5]      packing[16]  154
    x[5]      packing[17]  107
    x[5]      packing[18]  71
    x[5]      packing[19]  154
    x[5]      packing[20]  93
    x[5]      packing[21]  45
    x[5]      packing[22]  139
    x[5]      packing[23]  199
    x[5]      packing[24]  45
    x[5]      packing[25]  65
    x[5]      packing[26]  85
    x[5]      packing[27]  194
    x[5]      packing[30]  192
    x[5]      packing[32]  66
    x[5]      packing[33]  176
    x[5]      packing[34]  193
    x[5]      packing[35]  168
    x[5]      packing[36]  116
    x[5]      packing[37]  194
    x[5]      packing[38]  191
    x[5]      packing[39]  83
    x[5]      packing[40]  151
    x[5]      packing[43]  46
    x[5]      packing[44]  1
    x[5]      packing[45]  148
    x[5]      packing[46]  87
    x[5]      packing[47]  108
    x[5]      packing[48]  5
    x[5]      R52       1
    x[6]      OBJ       126
    x[6]      packing[0]  105
    x[6]      packing[1]  71
    x[6]      packing[2]  181
    x[6]      packing[3]  16
    x[6]      packing[4]  61
    x[6]      packing[7]  97
    x[6]      packing[8]  14
    x[6]      packing[9]  48
    x[6]      packing[10]  30
    x[6]      packing[11]  184
    x[6]      packing[12]  178
    x[6]      packing[13]  74
    x[6]      packing[16]  194
    x[6]      packing[18]  118
    x[6]      packing[19]  61
    x[6]      packing[20]  42
    x[6]      packing[23]  66
    x[6]      packing[24]  145
    x[6]      packing[25]  103
    x[6]      packing[26]  95
    x[6]      packing[30]  159
    x[6]      packing[31]  100
    x[6]      packing[32]  134
    x[6]      packing[36]  186
    x[6]      packing[37]  171
    x[6]      packing[38]  61
    x[6]      packing[40]  5
    x[6]      packing[41]  84
    x[6]      packing[42]  19
    x[6]      packing[43]  43
    x[6]      packing[45]  105
    x[6]      packing[46]  150
    x[6]      packing[47]  7
    x[6]      packing[48]  40
    x[6]      packing[49]  165
    x[7]      OBJ       106
    x[7]      packing[0]  96
    x[7]      packing[1]  140
    x[7]      packing[2]  118
    x[7]      packing[3]  135
    x[7]      packing[4]  76
    x[7]      packing[5]  167
    x[7]      packing[6]  9
    x[7]      packing[8]  30
    x[7]      packing[9]  152
    x[7]      packing[10]  197
    x[7]      packing[11]  70
    x[7]      packing[14]  112
    x[7]      packing[16]  163
    x[7]      packing[18]  151
    x[7]      packing[19]  194
    x[7]      packing[21]  108
    x[7]      packing[22]  36
    x[7]      packing[24]  125
    x[7]      packing[25]  102
    x[7]      packing[26]  68
    x[7]      packing[28]  155
    x[7]      packing[29]  114
    x[7]      packing[30]  159
    x[7]      packing[31]  87
    x[7]      packing[32]  138
    x[7]      packing[34]  28
    x[7]      packing[35]  196
    x[7]      packing[36]  89
    x[7]      packing[37]  5
    x[7]      packing[38]  18
    x[7]      packing[40]  121
    x[7]      packing[41]  185
    x[7]      packing[42]  34
    x[7]      packing[43]  23
    x[7]      packing[44]  116
    x[7]      packing[45]  130
    x[7]      packing[46]  73
    x[7]      packing[47]  105
    x[8]      OBJ       96
    x[8]      packing[0]  78
    x[8]      packing[2]  75
    x[8]      packing[4]  135
    x[8]      packing[5]  161
    x[8]      packing[6]  91
    x[8]      packing[8]  23
    x[8]      packing[9]  35
    x[8]      packing[10]  80
    x[8]      packing[11]  129
    x[8]      packing[12]  97
    x[8]      packing[13]  175
    x[8]      packing[14]  16
    x[8]      packing[15]  184
    x[8]      packing[16]  116
    x[8]      packing[19]  122
    x[8]      packing[20]  91
    x[8]      packing[22]  41
    x[8]      packing[23]  10
    x[8]      packing[24]  115
    x[8]      packing[25]  148
    x[8]      packing[26]  191
    x[8]      packing[27]  60
    x[8]      packing[28]  34
    x[8]      packing[30]  28
    x[8]      packing[31]  72
    x[8]      packing[32]  142
    x[8]      packing[33]  17
    x[8]      packing[34]  175
    x[8]      packing[35]  184
    x[8]      packing[37]  73
    x[8]      packing[38]  58
    x[8]      packing[40]  130
    x[8]      packing[42]  37
    x[8]      packing[43]  46
    x[8]      packing[45]  133
    x[8]      packing[46]  105
    x[8]      packing[47]  119
    x[8]      packing[49]  1
    x[9]      OBJ       107
    x[9]      packing[0]  69
    x[9]      packing[1]  44
    x[9]      packing[2]  198
    x[9]      packing[3]  118
    x[9]      packing[4]  29
    x[9]      packing[7]  103
    x[9]      packing[8]  161
    x[9]      packing[9]  170
    x[9]      packing[10]  179
    x[9]      packing[12]  68
    x[9]      packing[13]  62
    x[9]      packing[14]  144
    x[9]      packing[16]  164
    x[9]      packing[17]  58
    x[9]      packing[19]  137
    x[9]      packing[20]  76
    x[9]      packing[22]  45
    x[9]      packing[23]  185
    x[9]      packing[24]  120
    x[9]      packing[25]  16
    x[9]      packing[26]  43
    x[9]      packing[27]  83
    x[9]      packing[28]  79
    x[9]      packing[29]  53
    x[9]      packing[30]  73
    x[9]      packing[31]  188
    x[9]      packing[32]  129
    x[9]      packing[33]  124
    x[9]      packing[34]  153
    x[9]      packing[36]  157
    x[9]      packing[39]  194
    x[9]      packing[40]  83
    x[9]      packing[41]  143
    x[9]      packing[42]  169
    x[9]      packing[43]  49
    x[9]      packing[44]  146
    x[9]      packing[48]  72
    x[9]      packing[49]  187
    x[10]     OBJ       184
    x[10]     packing[2]  115
    x[10]     packing[3]  60
    x[10]     packing[4]  132
    x[10]     packing[5]  35
    x[10]     packing[6]  147
    x[10]     packing[7]  101
    x[10]     packing[10]  13
    x[10]     packing[11]  69
    x[10]     packing[12]  112
    x[10]     packing[13]  134
    x[10]     packing[14]  23
    x[10]     packing[15]  68
    x[10]     packing[16]  55
    x[10]     packing[17]  67
    x[10]     packing[18]  25
    x[10]     packing[19]  105
    x[10]     packing[20]  37
    x[10]     packing[23]  122
    x[10]     packing[25]  88
    x[10]     packing[27]  79
    x[10]     packing[28]  60
    x[10]     packing[30]  96
    x[10]     packing[31]  189
    x[10]     packing[32]  187
    x[10]     packing[35]  72
    x[10]     packing[36]  170
    x[10]     packing[37]  192
    x[10]     packing[40]  88
    x[10]     packing[41]  166
    x[10]     packing[42]  116
    x[10]     packing[43]  115
    x[10]     packing[44]  181
    x[10]     packing[45]  88
    x[10]     packing[47]  135
    x[10]     packing[48]  173
    x[10]     packing[49]  11
    x[10]     R52       1
    x[11]     OBJ       112
    x[11]     packing[0]  92
    x[11]     packing[1]  133
    x[11]     packing[2]  40
    x[11]     packing[3]  121
    x[11]     packing[5]  166
    x[11]     packing[10]  146
    x[11]     packing[12]  184
    x[11]     packing[14]  135
    x[11]     packing[15]  130
    x[11]     packing[16]  65
    x[11]     packing[17]  71
    x[11]     packing[19]  187
    x[11]     packing[20]  107
    x[11]     packing[21]  27
    x[11]     packing[22]  87
    x[11]     packing[23]  12
    x[11]     packing[24]  101
    x[11]     packing[25]  115
    x[11]     packing[26]  136
    x[11]     packing[27]  168
    x[11]     packing[28]  131
    x[11]     packing[29]  157
    x[11]     packing[31]  170
    x[11]     packing[33]  182
    x[11]     packing[34]  33
    x[11]     packing[35]  153
    x[11]     packing[38]  88
    x[11]     packing[39]  122
    x[11]     packing[41]  151
    x[11]     packing[43]  182
    x[11]     packing[44]  107
    x[11]     packing[45]  190
    x[11]     packing[46]  171
    x[11]     packing[47]  145
    x[11]     packing[49]  134
    x[11]     R52       1
    x[12]     OBJ       64
    x[12]     packing[2]  91
    x[12]     packing[3]  7
    x[12]     packing[4]  147
    x[12]     packing[6]  184
    x[12]     packing[7]  191
    x[12]     packing[8]  132
    x[12]     packing[9]  197
    x[12]     packing[10]  129
    x[12]     packing[11]  6
    x[12]     packing[12]  51
    x[12]     packing[13]  53
    x[12]     packing[14]  9
    x[12]     packing[15]  87
    x[12]     packing[16]  169
    x[12]     packing[17]  32
    x[12]     packing[18]  30
    x[12]     packing[19]  148
    x[12]     packing[21]  122
    x[12]     packing[22]  178
    x[12]     packing[23]  145
    x[12]     packing[25]  137
    x[12]     packing[26]  109
    x[12]     packing[27]  184
    x[12]     packing[28]  65
    x[12]     packing[30]  93
    x[12]     packing[31]  34
    x[12]     packing[32]  41
    x[12]     packing[33]  176
    x[12]     packing[34]  98
    x[12]     packing[36]  57
    x[12]     packing[37]  185
    x[12]     packing[38]  12
    x[12]     packing[39]  38
    x[12]     packing[42]  63
    x[12]     packing[43]  47
    x[12]     packing[44]  134
    x[12]     packing[45]  9
    x[12]     packing[47]  99
    x[12]     packing[49]  129
    x[13]     OBJ       166
    x[13]     packing[0]  67
    x[13]     packing[1]  167
    x[13]     packing[2]  141
    x[13]     packing[3]  8
    x[13]     packing[4]  190
    x[13]     packing[6]  82
    x[13]     packing[7]  86
    x[13]     packing[8]  98
    x[13]     packing[9]  46
    x[13]     packing[11]  5
    x[13]     packing[12]  148
    x[13]     packing[14]  144
    x[13]     packing[15]  97
    x[13]     packing[16]  109
    x[13]     packing[17]  53
    x[13]     packing[18]  89
    x[13]     packing[19]  46
    x[13]     packing[20]  81
    x[13]     packing[21]  35
    x[13]     packing[23]  187
    x[13]     packing[24]  117
    x[13]     packing[25]  196
    x[13]     packing[26]  175
    x[13]     packing[27]  189
    x[13]     packing[28]  10
    x[13]     packing[29]  31
    x[13]     packing[31]  199
    x[13]     packing[32]  54
    x[13]     packing[33]  22
    x[13]     packing[34]  60
    x[13]     packing[35]  174
    x[13]     packing[36]  160
    x[13]     packing[37]  51
    x[13]     packing[38]  172
    x[13]     packing[39]  43
    x[13]     packing[41]  83
    x[13]     packing[42]  44
    x[13]     packing[43]  126
    x[13]     packing[44]  170
    x[13]     packing[45]  173
    x[13]     packing[46]  16
    x[13]     packing[47]  104
    x[13]     R52       1
    x[14]     OBJ       81
    x[14]     packing[0]  34
    x[14]     packing[1]  141
    x[14]     packing[3]  37
    x[14]     packing[4]  65
    x[14]     packing[6]  103
    x[14]     packing[8]  91
    x[14]     packing[9]  72
    x[14]     packing[10]  91
    x[14]     packing[11]  18
    x[14]     packing[14]  11
    x[14]     packing[15]  177
    x[14]     packing[16]  117
    x[14]     packing[17]  54
    x[14]     packing[18]  72
    x[14]     packing[20]  1
    x[14]     packing[21]  15
    x[14]     packing[22]  195
    x[14]     packing[23]  42
    x[14]     packing[24]  118
    x[14]     packing[25]  173
    x[14]     packing[26]  66
    x[14]     packing[29]  62
    x[14]     packing[30]  153
    x[14]     packing[32]  186
    x[14]     packing[33]  197
    x[14]     packing[34]  54
    x[14]     packing[35]  38
    x[14]     packing[36]  19
    x[14]     packing[38]  4
    x[14]     packing[40]  47
    x[14]     packing[41]  162
    x[14]     packing[42]  152
    x[14]     packing[43]  116
    x[14]     packing[44]  155
    x[14]     packing[45]  5
    x[14]     packing[46]  165
    x[14]     packing[47]  125
    x[14]     packing[48]  148
    x[14]     packing[49]  126
    x[15]     OBJ       89
    x[15]     packing[0]  180
    x[15]     packing[1]  43
    x[15]     packing[2]  116
    x[15]     packing[4]  143
    x[15]     packing[5]  50
    x[15]     packing[6]  6
    x[15]     packing[7]  13
    x[15]     packing[8]  80
    x[15]     packing[11]  185
    x[15]     packing[12]  17
    x[15]     packing[13]  117
    x[15]     packing[14]  188
    x[15]     packing[15]  163
    x[15]     packing[16]  89
    x[15]     packing[18]  63
    x[15]     packing[19]  70
    x[15]     packing[22]  88
    x[15]     packing[23]  82
    x[15]     packing[24]  42
    x[15]     packing[25]  61
    x[15]     packing[26]  98
    x[15]     packing[27]  2
    x[15]     packing[28]  21
    x[15]     packing[29]  109
    x[15]     packing[30]  170
    x[15]     packing[37]  24
    x[15]     packing[38]  148
    x[15]     packing[39]  55
    x[15]     packing[40]  30
    x[15]     packing[41]  71
    x[15]     packing[42]  193
    x[15]     packing[43]  30
    x[15]     packing[44]  8
    x[15]     packing[46]  22
    x[15]     packing[48]  29
    x[15]     packing[49]  103
    x[16]     OBJ       106
    x[16]     packing[1]  8
    x[16]     packing[3]  14
    x[16]     packing[4]  35
    x[16]     packing[5]  10
    x[16]     packing[6]  72
    x[16]     packing[8]  143
    x[16]     packing[10]  43
    x[16]     packing[11]  40
    x[16]     packing[12]  70
    x[16]     packing[13]  27
    x[16]     packing[14]  116
    x[16]     packing[16]  123
    x[16]     packing[17]  103
    x[16]     packing[19]  20
    x[16]     packing[21]  163
    x[16]     packing[22]  68
    x[16]     packing[23]  160
    x[16]     packing[25]  176
    x[16]     packing[26]  129
    x[16]     packing[27]  6
    x[16]     packing[30]  153
    x[16]     packing[31]  170
    x[16]     packing[32]  11
    x[16]     packing[34]  189
    x[16]     packing[37]  183
    x[16]     packing[38]  57
    x[16]     packing[39]  164
    x[16]     packing[40]  117
    x[16]     packing[41]  81
    x[16]     packing[42]  131
    x[16]     packing[43]  169
    x[16]     packing[44]  106
    x[16]     packing[47]  88
    x[16]     packing[48]  114
    x[16]     packing[49]  113
    x[17]     OBJ       16
    x[17]     packing[0]  184
    x[17]     packing[1]  67
    x[17]     packing[3]  146
    x[17]     packing[5]  127
    x[17]     packing[8]  67
    x[17]     packing[9]  112
    x[17]     packing[12]  2
    x[17]     packing[15]  143
    x[17]     packing[17]  94
    x[17]     packing[18]  97
    x[17]     packing[19]  127
    x[17]     packing[20]  51
    x[17]     packing[21]  149
    x[17]     packing[23]  1
    x[17]     packing[24]  49
    x[17]     packing[25]  92
    x[17]     packing[26]  7
    x[17]     packing[27]  26
    x[17]     packing[28]  176
    x[17]     packing[29]  81
    x[17]     packing[30]  58
    x[17]     packing[31]  154
    x[17]     packing[33]  79
    x[17]     packing[35]  53
    x[17]     packing[36]  43
    x[17]     packing[38]  89
    x[17]     packing[39]  105
    x[17]     packing[41]  118
    x[17]     packing[43]  155
    x[17]     packing[44]  118
    x[17]     packing[45]  191
    x[17]     packing[46]  61
    x[17]     packing[47]  98
    x[17]     packing[48]  195
    x[17]     packing[49]  79
    x[18]     OBJ       166
    x[18]     packing[1]  109
    x[18]     packing[2]  158
    x[18]     packing[3]  141
    x[18]     packing[5]  192
    x[18]     packing[6]  7
    x[18]     packing[7]  109
    x[18]     packing[8]  70
    x[18]     packing[10]  198
    x[18]     packing[11]  11
    x[18]     packing[12]  39
    x[18]     packing[13]  15
    x[18]     packing[14]  198
    x[18]     packing[15]  172
    x[18]     packing[18]  87
    x[18]     packing[19]  29
    x[18]     packing[21]  89
    x[18]     packing[22]  23
    x[18]     packing[23]  180
    x[18]     packing[24]  46
    x[18]     packing[25]  103
    x[18]     packing[26]  19
    x[18]     packing[27]  23
    x[18]     packing[28]  9
    x[18]     packing[29]  89
    x[18]     packing[31]  17
    x[18]     packing[32]  118
    x[18]     packing[33]  179
    x[18]     packing[34]  178
    x[18]     packing[35]  54
    x[18]     packing[36]  139
    x[18]     packing[37]  165
    x[18]     packing[39]  187
    x[18]     packing[40]  48
    x[18]     packing[41]  38
    x[18]     packing[42]  119
    x[18]     packing[46]  114
    x[18]     packing[47]  136
    x[18]     packing[48]  68
    x[18]     R52       1
    x[19]     OBJ       193
    x[19]     packing[0]  186
    x[19]     packing[1]  3
    x[19]     packing[2]  198
    x[19]     packing[4]  113
    x[19]     packing[5]  133
    x[19]     packing[7]  105
    x[19]     packing[8]  10
    x[19]     packing[9]  16
    x[19]     packing[10]  22
    x[19]     packing[11]  62
    x[19]     packing[12]  112
    x[19]     packing[13]  84
    x[19]     packing[14]  178
    x[19]     packing[16]  132
    x[19]     packing[17]  38
    x[19]     packing[18]  68
    x[19]     packing[19]  156
    x[19]     packing[20]  96
    x[19]     packing[21]  87
    x[19]     packing[22]  197
    x[19]     packing[23]  23
    x[19]     packing[24]  76
    x[19]     packing[26]  30
    x[19]     packing[27]  23
    x[19]     packing[28]  87
    x[19]     packing[29]  75
    x[19]     packing[32]  14
    x[19]     packing[33]  45
    x[19]     packing[34]  36
    x[19]     packing[37]  56
    x[19]     packing[38]  40
    x[19]     packing[39]  133
    x[19]     packing[40]  190
    x[19]     packing[41]  183
    x[19]     packing[42]  138
    x[19]     packing[43]  199
    x[19]     packing[44]  193
    x[19]     packing[46]  122
    x[19]     packing[47]  15
    x[19]     packing[48]  58
    x[19]     R52       1
    x[20]     OBJ       57
    x[20]     packing[1]  12
    x[20]     packing[2]  17
    x[20]     packing[3]  132
    x[20]     packing[4]  127
    x[20]     packing[5]  41
    x[20]     packing[6]  168
    x[20]     packing[7]  71
    x[20]     packing[9]  142
    x[20]     packing[10]  59
    x[20]     packing[12]  93
    x[20]     packing[13]  76
    x[20]     packing[14]  66
    x[20]     packing[15]  74
    x[20]     packing[16]  100
    x[20]     packing[17]  114
    x[20]     packing[18]  13
    x[20]     packing[19]  110
    x[20]     packing[21]  152
    x[20]     packing[22]  53
    x[20]     packing[23]  1
    x[20]     packing[24]  197
    x[20]     packing[25]  198
    x[20]     packing[27]  115
    x[20]     packing[28]  22
    x[20]     packing[29]  2
    x[20]     packing[31]  171
    x[20]     packing[32]  177
    x[20]     packing[34]  91
    x[20]     packing[35]  75
    x[20]     packing[36]  112
    x[20]     packing[37]  163
    x[20]     packing[38]  75
    x[20]     packing[40]  146
    x[20]     packing[42]  70
    x[20]     packing[43]  61
    x[20]     packing[45]  167
    x[20]     packing[46]  182
    x[20]     packing[47]  14
    x[20]     packing[49]  14
    MARKER    'MARKER'                 'INTEND'
RHS
    RHS1      packing[0]  717
    RHS1      packing[1]  549
    RHS1      packing[2]  800
    RHS1      packing[3]  603
    RHS1      packing[4]  755
    RHS1      packing[5]  610
    RHS1      packing[6]  613
    RHS1      packing[7]  633
    RHS1      packing[8]  765
    RHS1      packing[9]  690
    RHS1      packing[10]  770
    RHS1      packing[11]  724
    RHS1      packing[12]  725
    RHS1      packing[13]  620
    RHS1      packing[14]  862
    RHS1      packing[15]  834
    RHS1      packing[16]  978
    RHS1      packing[17]  476
    RHS1      packing[18]  488
    RHS1      packing[19]  973
    RHS1      packing[20]  477
    RHS1      packing[21]  653
    RHS1      packing[22]  803
    RHS1      packing[23]  942
    RHS1      packing[24]  818
    RHS1      packing[25]  972
    RHS1      packing[26]  726
    RHS1      packing[27]  772
    RHS1      packing[28]  455
    RHS1      packing[29]  496
    RHS1      packing[30]  877
    RHS1      packing[31]  822
    RHS1      packing[32]  802
    RHS1      packing[33]  795
    RHS1      packing[34]  749
    RHS1      packing[35]  667
    RHS1      packing[36]  709
    RHS1      packing[37]  970
    RHS1      packing[38]  684
    RHS1      packing[39]  729
    RHS1      packing[40]  807
    RHS1      packing[41]  832
    RHS1      packing[42]  884
    RHS1      packing[43]  765
    RHS1      packing[44]  925
    RHS1      packing[45]  911
    RHS1      packing[46]  690
    RHS1      packing[47]  777
    RHS1      packing[48]  737
    RHS1      packing[49]  714
    RHS1      R52       5
BOUNDS
 BV BND1      x[1]    
 BV BND1      x[2]    
 BV BND1      x[3]    
 BV BND1      x[4]    
 BV BND1      x[5]    
 BV BND1      x[6]    
 BV BND1      x[7]    
 BV BND1      x[8]    
 BV BND1      x[9]    
 BV BND1      x[10]   
 BV BND1      x[11]   
 BV BND1      x[12]   
 BV BND1      x[13]   
 BV BND1      x[14]   
 BV BND1      x[15]   
 BV BND1      x[16]   
 BV BND1      x[17]   
 BV BND1      x[18]   
 BV BND1      x[19]   
 BV BND1      x[20]   
ENDATA
